(set-logic QF_S)
(declare-fun var0 () Int)
(declare-fun var1 () Int)
(declare-fun var2 () Int)
(declare-fun var3 () String)
(declare-fun var4 () String)
(declare-fun var5 () String)
(declare-fun var6 () String)
(declare-fun var7 () Int)
(declare-fun var8 () Bool)
(assert (str.contains (str.substr "1&tbP?}(" var0 var1) (str.at "sH" var2)))
(assert (> (str.len var3) (str.len (str.replace var4 ")i" var5))))
(assert (str.contains (str.substr var6 (str.len var5) (str.indexof var3 var6 var7)) (str.substr var3 65 var7)))
(assert (not (not var8)))
(check-sat)